78
Lattice="50.0 0.0 0.0 0.0 50.0 0.0 0.0 0.0 50.0" Origin="-3.0 -3.0 -3.0" Properties=species:S:1:pos:R:3
C 21.4999 28.8474 27.1583
C 20.2932 27.8792 26.9722
H 22.1225 28.6609 28.1324
H 21.1089 29.8921 27.2007
H 22.1695 28.6019 26.3449
H 19.4904 27.9725 27.6568
C 20.721 26.3472 26.8351
C 19.6683 28.2022 25.5996
N 19.8464 27.5884 24.4506
C 21.4951 26.023 25.5239
H 19.7791 25.83 26.831
C 20.6583 26.5083 24.3642
N 20.6469 25.9711 23.1968
H 21.2929 26.0844 27.7646
H 22.3895 26.6098 25.3613
C 21.7273 24.5545 25.4132
H 20.7684 24.0926 25.4659
H 22.2761 24.2528 26.3714
C 22.2278 24.0918 24.0537
H 23.2032 24.4866 23.902
C 21.3455 24.742 22.9443
C 22.2329 22.5767 23.8355
N 21.2949 24.3664 21.7099
H 21.1379 22.3102 23.9574
H 22.8431 22.0435 24.5713
C 22.6916 22.3157 22.3734
C 22.7032 20.8029 22.0272
H 23.741 22.6467 22.3072
C 21.8369 23.1367 21.4271
N 21.3787 22.7095 20.2275
C 22.7517 20.612 20.4675
H 21.7738 20.3198 22.2707
H 23.3811 20.2822 22.6555
C 21.6607 21.4376 19.8729
H 23.721 21.0399 20.0724
N 20.9251 21.0718 18.8395
C 22.6015 19.1625 20.0641
H 21.8655 18.6347 20.7118
H 23.5625 18.634 20.1891
C 22.1317 18.9385 18.5659
C 20.8767 19.7756 18.4834
C 21.9905 17.4679 18.1329
H 22.7939 19.4353 17.8205
N 19.7779 19.3688 17.9486
C 20.8019 17.2953 17.1174
H 21.8021 16.8297 19.0428
H 22.9399 17.0053 17.6931
H 21.2051 17.7294 16.2105
C 19.6081 18.1045 17.4519
C 20.549 15.885 16.5936
N 18.377 17.7614 17.0749
H 20.1981 15.2162 17.4243
H 21.4471 15.3941 16.1341
C 19.3778 16.0939 15.5522
H 19.6658 16.8091 14.8137
C 18.2068 16.6907 16.3237
C 19.1114 14.7429 14.8675
N 16.9434 16.2342 16.2879
H 20.0804 14.1356 14.8685
H 18.8974 14.87 13.7551
C 17.9928 14.0235 15.6708
C 16.7725 14.9265 15.8499
H 18.408 13.8328 16.7212
C 17.6981 12.6318 15.13
N 15.5526 14.5061 15.7232
C 16.3934 12.167 15.6298
H 18.5323 11.9503 15.4765
H 17.6886 12.5697 14.0046
H 15.9613 11.2625 15.1197
C 15.3079 13.127 15.2121
C 16.2831 11.9836 17.1377
N 14.1858 13.0435 14.6304
H 16.8585 11.1764 17.5208
H 15.2632 11.9293 17.5035
H 16.6208 12.8429 17.6927
Li 13.7468 15.0007 14.9056
O 18.7876 29.2018 25.5233
H 18.8196 29.6685 26.3904
