36
Lattice="25.0 0.0 0.0 0.0 25.0 0.0 0.0 0.0 25.0" Properties=species:S:1:pos:R:3
C 12.6411 12.0616 17.2966
C 12.597 11.8444 15.8529
H 13.0903 11.0521 17.6643
H 11.6745 12.2078 17.6834
H 13.2616 12.8939 17.691
H 13.6176 11.5651 15.5045
C 12.0899 13.0134 15.0649
C 11.7866 10.6337 15.398
N 11.4929 10.4264 14.1703
C 12.1174 12.9094 13.5666
H 12.6672 13.9151 15.4256
C 11.8509 11.3906 13.0772
N 11.8938 11.0438 11.8478
H 11.0622 13.1411 15.4213
H 11.4403 13.6197 13.0295
C 13.4717 13.3772 12.9684
H 13.9562 12.4452 12.5452
H 14.1259 13.7874 13.7401
C 13.4727 14.4971 11.827
H 14.5293 14.6477 11.664
C 12.8278 15.7692 12.1487
C 12.7522 13.9134 10.6242
N 12.4328 16.7206 12.6816
H 12.2004 14.6452 10.0107
H 12.0745 13.1678 10.9265
C 13.6957 13.0634 9.67242
C 12.8798 12.2759 8.64721
H 14.4344 12.4666 10.212
C 14.6219 14.0078 9.00331
N 15.3045 14.9075 8.61501
H 13.5933 11.5955 8.11585
H 12.4845 13.0846 8.05503
H 12.0435 11.7343 9.23483
O 11.5425 9.58565 16.3491
H 11.5485 9.96565 17.2629
Li 10.9042 9.54373 12.571
