36
Lattice="25.0 0.0 0.0 0.0 25.0 0.0 0.0 0.0 25.0" Properties=species:S:1:pos:R:3
C 12.4821 7.28567 11.7423
C 12.3465 8.81874 12.0382
H 11.7019 6.58129 12.0154
H 13.3189 6.96019 12.385
H 12.8567 7.07144 10.738
H 12.8319 9.31675 11.1843
C 13.0163 9.11815 13.3597
C 10.8914 9.30022 11.9574
N 10.4899 10.3094 12.6066
C 12.8026 10.685 13.6602
H 14.0299 8.84085 13.2635
C 11.4514 11.1347 13.1683
N 11.0231 12.3428 13.3013
H 12.674 8.48607 14.1923
H 12.7342 10.8713 14.746
C 13.8622 11.697 13.1265
H 13.7869 11.6789 12.0286
H 14.8447 11.2916 13.4586
C 13.4018 13.0006 13.8099
H 13.5916 12.8542 14.9112
C 11.9506 13.3084 13.7066
C 14.1939 14.196 13.3735
N 11.4891 14.4486 14.0422
H 13.8825 14.3906 12.3404
H 15.1772 13.8885 13.4498
C 13.837 15.4307 14.2688
C 14.6338 16.6356 13.7949
H 14.1323 15.1066 15.2885
C 12.2993 15.6348 14.2988
N 11.7754 16.7993 14.4038
H 15.6268 16.2356 13.4357
H 14.7866 17.3761 14.5554
H 14.0148 17.0336 12.9459
O 10.056 8.49333 11.1966
H 10.6814 8.01912 10.6884
Li 10.0044 15.9029 14.4021
