36
Lattice="25.0 0.0 0.0 0.0 25.0 0.0 0.0 0.0 25.0" Properties=species:S:1:pos:R:3
C 8.58382 12.3171 14.1324
C 9.34443 11.1735 13.618
H 8.78948 12.3432 15.2323
H 7.49277 12.3519 14.0783
H 8.88383 13.2584 13.788
H 8.76522 10.2153 13.8506
C 10.7595 11.1513 14.263
C 9.45779 11.1969 12.1498
N 10.4157 11.5242 11.4193
C 11.6551 12.1947 13.5176
H 11.1846 10.1533 14.1843
C 11.5528 12.1093 11.9663
N 12.553 12.5206 11.2113
H 10.8348 11.5375 15.3691
H 11.2737 13.1782 13.8136
C 13.1007 12.1264 13.9578
H 13.4173 11.0553 13.7433
H 13.0941 12.3369 15.0695
C 14.0569 13.0732 13.1495
H 13.675 14.0679 13.343
C 13.9505 12.7292 11.7167
C 15.5027 13.0984 13.6502
N 14.8323 12.3225 10.903
H 15.987 12.1981 13.2831
H 15.3798 13.0244 14.7723
C 16.4252 14.3873 13.3749
C 16.6406 14.7076 11.9391
H 17.4328 14.0216 13.8161
C 15.9857 15.5314 14.1368
N 15.8098 16.4477 14.8274
H 17.6576 15.0353 11.7678
H 15.9311 15.3877 11.5393
H 16.6819 13.7504 11.3542
O 8.2406 10.8406 11.5617
H 8.41078 10.9936 10.611
Li 13.554 12.4952 9.58928
